language Essence 1.3

letting costTC be
        function((1, 1) --> 3, (1, 2) --> 3, (1, 3) --> 3, (1, 4) --> 3, (1, 5) --> 3, (1, 6) --> 3, (2, 1) --> 3,
                 (2, 2) --> 3, (2, 3) --> 3, (2, 4) --> 3, (2, 5) --> 3, (2, 6) --> 3, (3, 1) --> 3, (3, 2) --> 3,
                 (3, 3) --> 3, (3, 4) --> 3, (3, 5) --> 3, (3, 6) --> 3, (4, 1) --> 3, (4, 2) --> 3, (4, 3) --> 3,
                 (4, 4) --> 3, (4, 5) --> 3, (4, 6) --> 3, (5, 1) --> 3, (5, 2) --> 3, (5, 3) --> 3, (5, 4) --> 3,
                 (5, 5) --> 3, (5, 6) --> 3, (6, 1) --> 3, (6, 2) --> 3, (6, 3) --> 3, (6, 4) --> 3, (6, 5) --> 3,
                 (6, 6) --> 3, (7, 1) --> 3, (7, 2) --> 3, (7, 3) --> 3, (7, 4) --> 3, (7, 5) --> 3, (7, 6) --> 3,
                 (8, 1) --> 3, (8, 2) --> 3, (8, 3) --> 3, (8, 4) --> 3, (8, 5) --> 3, (8, 6) --> 3, (9, 1) --> 3,
                 (9, 2) --> 3, (9, 3) --> 3, (9, 4) --> 3, (9, 5) --> 3, (9, 6) --> 3, (10, 1) --> 3, (10, 2) --> 3,
                 (10, 3) --> 3, (10, 4) --> 3, (10, 5) --> 3, (10, 6) --> 3, (11, 1) --> 3, (11, 2) --> 3,
                 (11, 3) --> 3, (11, 4) --> 3, (11, 5) --> 3, (11, 6) --> 3, (12, 1) --> 3, (12, 2) --> 3,
                 (12, 3) --> 3, (12, 4) --> 3, (12, 5) --> 3, (12, 6) --> 3, (13, 1) --> 3, (13, 2) --> 3,
                 (13, 3) --> 3, (13, 4) --> 3, (13, 5) --> 3, (13, 6) --> 3, (14, 1) --> 3, (14, 2) --> 3,
                 (14, 3) --> 3, (14, 4) --> 3, (14, 5) --> 3, (14, 6) --> 3, (15, 1) --> 3, (15, 2) --> 3,
                 (15, 3) --> 3, (15, 4) --> 3, (15, 5) --> 3, (15, 6) --> 3, (16, 1) --> 3, (16, 2) --> 3,
                 (16, 3) --> 3, (16, 4) --> 3, (16, 5) --> 3, (16, 6) --> 3, (17, 1) --> 3, (17, 2) --> 3,
                 (17, 3) --> 3, (17, 4) --> 3, (17, 5) --> 3, (17, 6) --> 3, (18, 1) --> 3, (18, 2) --> 3,
                 (18, 3) --> 3, (18, 4) --> 3, (18, 5) --> 3, (18, 6) --> 3, (19, 1) --> 3, (19, 2) --> 3,
                 (19, 3) --> 3, (19, 4) --> 3, (19, 5) --> 3, (19, 6) --> 3, (20, 1) --> 3, (20, 2) --> 3,
                 (20, 3) --> 3, (20, 4) --> 3, (20, 5) --> 3, (20, 6) --> 3)
letting costWT be
        function((1, 1) --> 1, (1, 2) --> 2, (1, 3) --> 2, (1, 4) --> 3, (1, 5) --> 1, (1, 6) --> 3, (1, 7) --> 1,
                 (1, 8) --> 2, (1, 9) --> 1, (1, 10) --> 1, (1, 11) --> 2, (1, 12) --> 2, (1, 13) --> 1, (1, 14) --> 3,
                 (1, 15) --> 3, (1, 16) --> 2, (1, 17) --> 1, (1, 18) --> 3, (1, 19) --> 3, (1, 20) --> 3, (2, 1) --> 3,
                 (2, 2) --> 3, (2, 3) --> 2, (2, 4) --> 3, (2, 5) --> 3, (2, 6) --> 2, (2, 7) --> 1, (2, 8) --> 2,
                 (2, 9) --> 1, (2, 10) --> 1, (2, 11) --> 2, (2, 12) --> 2, (2, 13) --> 1, (2, 14) --> 2, (2, 15) --> 3,
                 (2, 16) --> 2, (2, 17) --> 2, (2, 18) --> 2, (2, 19) --> 2, (2, 20) --> 2, (3, 1) --> 1, (3, 2) --> 2,
                 (3, 3) --> 1, (3, 4) --> 3, (3, 5) --> 3, (3, 6) --> 1, (3, 7) --> 1, (3, 8) --> 3, (3, 9) --> 1,
                 (3, 10) --> 1, (3, 11) --> 2, (3, 12) --> 1, (3, 13) --> 3, (3, 14) --> 3, (3, 15) --> 3,
                 (3, 16) --> 1, (3, 17) --> 3, (3, 18) --> 1, (3, 19) --> 2, (3, 20) --> 2, (4, 1) --> 1, (4, 2) --> 1,
                 (4, 3) --> 3, (4, 4) --> 2, (4, 5) --> 2, (4, 6) --> 1, (4, 7) --> 3, (4, 8) --> 2, (4, 9) --> 3,
                 (4, 10) --> 2, (4, 11) --> 1, (4, 12) --> 2, (4, 13) --> 2, (4, 14) --> 3, (4, 15) --> 2,
                 (4, 16) --> 1, (4, 17) --> 1, (4, 18) --> 2, (4, 19) --> 3, (4, 20) --> 1, (5, 1) --> 2, (5, 2) --> 3,
                 (5, 3) --> 3, (5, 4) --> 1, (5, 5) --> 1, (5, 6) --> 2, (5, 7) --> 2, (5, 8) --> 2, (5, 9) --> 1,
                 (5, 10) --> 1, (5, 11) --> 2, (5, 12) --> 3, (5, 13) --> 2, (5, 14) --> 3, (5, 15) --> 3,
                 (5, 16) --> 1, (5, 17) --> 3, (5, 18) --> 3, (5, 19) --> 2, (5, 20) --> 3, (6, 1) --> 1, (6, 2) --> 2,
                 (6, 3) --> 1, (6, 4) --> 1, (6, 5) --> 2, (6, 6) --> 2, (6, 7) --> 2, (6, 8) --> 2, (6, 9) --> 2,
                 (6, 10) --> 2, (6, 11) --> 1, (6, 12) --> 1, (6, 13) --> 3, (6, 14) --> 1, (6, 15) --> 1,
                 (6, 16) --> 3, (6, 17) --> 2, (6, 18) --> 3, (6, 19) --> 2, (6, 20) --> 2, (7, 1) --> 1, (7, 2) --> 2,
                 (7, 3) --> 3, (7, 4) --> 1, (7, 5) --> 2, (7, 6) --> 3, (7, 7) --> 2, (7, 8) --> 3, (7, 9) --> 3,
                 (7, 10) --> 3, (7, 11) --> 3, (7, 12) --> 2, (7, 13) --> 1, (7, 14) --> 2, (7, 15) --> 2,
                 (7, 16) --> 2, (7, 17) --> 2, (7, 18) --> 2, (7, 19) --> 1, (7, 20) --> 2, (8, 1) --> 1, (8, 2) --> 3,
                 (8, 3) --> 2, (8, 4) --> 3, (8, 5) --> 1, (8, 6) --> 1, (8, 7) --> 2, (8, 8) --> 1, (8, 9) --> 2,
                 (8, 10) --> 1, (8, 11) --> 2, (8, 12) --> 1, (8, 13) --> 1, (8, 14) --> 1, (8, 15) --> 1,
                 (8, 16) --> 1, (8, 17) --> 1, (8, 18) --> 3, (8, 19) --> 1, (8, 20) --> 2, (9, 1) --> 2, (9, 2) --> 1,
                 (9, 3) --> 3, (9, 4) --> 1, (9, 5) --> 3, (9, 6) --> 1, (9, 7) --> 1, (9, 8) --> 2, (9, 9) --> 2,
                 (9, 10) --> 3, (9, 11) --> 1, (9, 12) --> 3, (9, 13) --> 1, (9, 14) --> 2, (9, 15) --> 2,
                 (9, 16) --> 2, (9, 17) --> 2, (9, 18) --> 1, (9, 19) --> 2, (9, 20) --> 1, (10, 1) --> 3,
                 (10, 2) --> 2, (10, 3) --> 2, (10, 4) --> 3, (10, 5) --> 3, (10, 6) --> 3, (10, 7) --> 2,
                 (10, 8) --> 3, (10, 9) --> 2, (10, 10) --> 2, (10, 11) --> 1, (10, 12) --> 3, (10, 13) --> 1,
                 (10, 14) --> 3, (10, 15) --> 3, (10, 16) --> 1, (10, 17) --> 3, (10, 18) --> 3, (10, 19) --> 2,
                 (10, 20) --> 3, (11, 1) --> 3, (11, 2) --> 2, (11, 3) --> 2, (11, 4) --> 2, (11, 5) --> 1,
                 (11, 6) --> 2, (11, 7) --> 2, (11, 8) --> 1, (11, 9) --> 2, (11, 10) --> 3, (11, 11) --> 2,
                 (11, 12) --> 1, (11, 13) --> 2, (11, 14) --> 3, (11, 15) --> 1, (11, 16) --> 1, (11, 17) --> 1,
                 (11, 18) --> 3, (11, 19) --> 2, (11, 20) --> 1, (12, 1) --> 2, (12, 2) --> 3, (12, 3) --> 1,
                 (12, 4) --> 3, (12, 5) --> 3, (12, 6) --> 2, (12, 7) --> 3, (12, 8) --> 3, (12, 9) --> 1,
                 (12, 10) --> 1, (12, 11) --> 2, (12, 12) --> 1, (12, 13) --> 1, (12, 14) --> 1, (12, 15) --> 1,
                 (12, 16) --> 2, (12, 17) --> 1, (12, 18) --> 1, (12, 19) --> 3, (12, 20) --> 2, (13, 1) --> 2,
                 (13, 2) --> 1, (13, 3) --> 3, (13, 4) --> 3, (13, 5) --> 3, (13, 6) --> 1, (13, 7) --> 1,
                 (13, 8) --> 3, (13, 9) --> 3, (13, 10) --> 3, (13, 11) --> 3, (13, 12) --> 1, (13, 13) --> 2,
                 (13, 14) --> 2, (13, 15) --> 3, (13, 16) --> 1, (13, 17) --> 3, (13, 18) --> 1, (13, 19) --> 1,
                 (13, 20) --> 3, (14, 1) --> 2, (14, 2) --> 3, (14, 3) --> 1, (14, 4) --> 2, (14, 5) --> 1,
                 (14, 6) --> 2, (14, 7) --> 3, (14, 8) --> 3, (14, 9) --> 3, (14, 10) --> 1, (14, 11) --> 3,
                 (14, 12) --> 3, (14, 13) --> 1, (14, 14) --> 3, (14, 15) --> 3, (14, 16) --> 2, (14, 17) --> 1,
                 (14, 18) --> 1, (14, 19) --> 1, (14, 20) --> 1, (15, 1) --> 1, (15, 2) --> 2, (15, 3) --> 2,
                 (15, 4) --> 1, (15, 5) --> 2, (15, 6) --> 2, (15, 7) --> 3, (15, 8) --> 2, (15, 9) --> 3,
                 (15, 10) --> 3, (15, 11) --> 1, (15, 12) --> 3, (15, 13) --> 2, (15, 14) --> 3, (15, 15) --> 3,
                 (15, 16) --> 3, (15, 17) --> 2, (15, 18) --> 1, (15, 19) --> 2, (15, 20) --> 3, (16, 1) --> 1,
                 (16, 2) --> 3, (16, 3) --> 3, (16, 4) --> 2, (16, 5) --> 2, (16, 6) --> 2, (16, 7) --> 3,
                 (16, 8) --> 3, (16, 9) --> 3, (16, 10) --> 3, (16, 11) --> 2, (16, 12) --> 2, (16, 13) --> 1,
                 (16, 14) --> 3, (16, 15) --> 1, (16, 16) --> 2, (16, 17) --> 2, (16, 18) --> 1, (16, 19) --> 1,
                 (16, 20) --> 1, (17, 1) --> 1, (17, 2) --> 2, (17, 3) --> 2, (17, 4) --> 3, (17, 5) --> 1,
                 (17, 6) --> 3, (17, 7) --> 3, (17, 8) --> 2, (17, 9) --> 1, (17, 10) --> 2, (17, 11) --> 3,
                 (17, 12) --> 2, (17, 13) --> 3, (17, 14) --> 3, (17, 15) --> 1, (17, 16) --> 2, (17, 17) --> 2,
                 (17, 18) --> 1, (17, 19) --> 2, (17, 20) --> 1, (18, 1) --> 1, (18, 2) --> 3, (18, 3) --> 3,
                 (18, 4) --> 1, (18, 5) --> 3, (18, 6) --> 1, (18, 7) --> 2, (18, 8) --> 3, (18, 9) --> 3,
                 (18, 10) --> 2, (18, 11) --> 1, (18, 12) --> 2, (18, 13) --> 1, (18, 14) --> 3, (18, 15) --> 1,
                 (18, 16) --> 2, (18, 17) --> 3, (18, 18) --> 1, (18, 19) --> 1, (18, 20) --> 3, (19, 1) --> 1,
                 (19, 2) --> 1, (19, 3) --> 3, (19, 4) --> 1, (19, 5) --> 3, (19, 6) --> 1, (19, 7) --> 1,
                 (19, 8) --> 3, (19, 9) --> 3, (19, 10) --> 1, (19, 11) --> 1, (19, 12) --> 3, (19, 13) --> 3,
                 (19, 14) --> 2, (19, 15) --> 3, (19, 16) --> 2, (19, 17) --> 3, (19, 18) --> 2, (19, 19) --> 3,
                 (19, 20) --> 3, (20, 1) --> 3, (20, 2) --> 3, (20, 3) --> 1, (20, 4) --> 3, (20, 5) --> 3,
                 (20, 6) --> 2, (20, 7) --> 3, (20, 8) --> 3, (20, 9) --> 2, (20, 10) --> 2, (20, 11) --> 3,
                 (20, 12) --> 3, (20, 13) --> 3, (20, 14) --> 1, (20, 15) --> 3, (20, 16) --> 2, (20, 17) --> 1,
                 (20, 18) --> 2, (20, 19) --> 1, (20, 20) --> 2, (21, 1) --> 3, (21, 2) --> 3, (21, 3) --> 1,
                 (21, 4) --> 2, (21, 5) --> 1, (21, 6) --> 3, (21, 7) --> 2, (21, 8) --> 1, (21, 9) --> 1,
                 (21, 10) --> 3, (21, 11) --> 2, (21, 12) --> 3, (21, 13) --> 2, (21, 14) --> 2, (21, 15) --> 1,
                 (21, 16) --> 3, (21, 17) --> 3, (21, 18) --> 1, (21, 19) --> 3, (21, 20) --> 2, (22, 1) --> 2,
                 (22, 2) --> 2, (22, 3) --> 2, (22, 4) --> 2, (22, 5) --> 3, (22, 6) --> 2, (22, 7) --> 1,
                 (22, 8) --> 1, (22, 9) --> 2, (22, 10) --> 2, (22, 11) --> 1, (22, 12) --> 2, (22, 13) --> 3,
                 (22, 14) --> 1, (22, 15) --> 2, (22, 16) --> 1, (22, 17) --> 1, (22, 18) --> 3, (22, 19) --> 1,
                 (22, 20) --> 3, (23, 1) --> 2, (23, 2) --> 1, (23, 3) --> 2, (23, 4) --> 2, (23, 5) --> 2,
                 (23, 6) --> 3, (23, 7) --> 1, (23, 8) --> 3, (23, 9) --> 2, (23, 10) --> 2, (23, 11) --> 1,
                 (23, 12) --> 1, (23, 13) --> 1, (23, 14) --> 2, (23, 15) --> 3, (23, 16) --> 2, (23, 17) --> 3,
                 (23, 18) --> 3, (23, 19) --> 2, (23, 20) --> 3, (24, 1) --> 3, (24, 2) --> 2, (24, 3) --> 2,
                 (24, 4) --> 2, (24, 5) --> 2, (24, 6) --> 3, (24, 7) --> 2, (24, 8) --> 3, (24, 9) --> 3,
                 (24, 10) --> 2, (24, 11) --> 1, (24, 12) --> 1, (24, 13) --> 2, (24, 14) --> 3, (24, 15) --> 1,
                 (24, 16) --> 1, (24, 17) --> 1, (24, 18) --> 1, (24, 19) --> 2, (24, 20) --> 3, (25, 1) --> 3,
                 (25, 2) --> 1, (25, 3) --> 3, (25, 4) --> 1, (25, 5) --> 1, (25, 6) --> 1, (25, 7) --> 1,
                 (25, 8) --> 1, (25, 9) --> 2, (25, 10) --> 1, (25, 11) --> 3, (25, 12) --> 3, (25, 13) --> 1,
                 (25, 14) --> 3, (25, 15) --> 1, (25, 16) --> 1, (25, 17) --> 3, (25, 18) --> 3, (25, 19) --> 2,
                 (25, 20) --> 3, (26, 1) --> 2, (26, 2) --> 3, (26, 3) --> 2, (26, 4) --> 2, (26, 5) --> 3,
                 (26, 6) --> 3, (26, 7) --> 2, (26, 8) --> 3, (26, 9) --> 2, (26, 10) --> 2, (26, 11) --> 3,
                 (26, 12) --> 3, (26, 13) --> 2, (26, 14) --> 3, (26, 15) --> 1, (26, 16) --> 2, (26, 17) --> 2,
                 (26, 18) --> 2, (26, 19) --> 2, (26, 20) --> 1, (27, 1) --> 1, (27, 2) --> 3, (27, 3) --> 1,
                 (27, 4) --> 2, (27, 5) --> 2, (27, 6) --> 2, (27, 7) --> 1, (27, 8) --> 2, (27, 9) --> 2,
                 (27, 10) --> 3, (27, 11) --> 1, (27, 12) --> 2, (27, 13) --> 1, (27, 14) --> 3, (27, 15) --> 3,
                 (27, 16) --> 2, (27, 17) --> 1, (27, 18) --> 1, (27, 19) --> 2, (27, 20) --> 1, (28, 1) --> 3,
                 (28, 2) --> 2, (28, 3) --> 3, (28, 4) --> 3, (28, 5) --> 3, (28, 6) --> 1, (28, 7) --> 3,
                 (28, 8) --> 1, (28, 9) --> 2, (28, 10) --> 3, (28, 11) --> 2, (28, 12) --> 1, (28, 13) --> 1,
                 (28, 14) --> 1, (28, 15) --> 1, (28, 16) --> 2, (28, 17) --> 2, (28, 18) --> 3, (28, 19) --> 3,
                 (28, 20) --> 2, (29, 1) --> 2, (29, 2) --> 1, (29, 3) --> 3, (29, 4) --> 2, (29, 5) --> 2,
                 (29, 6) --> 3, (29, 7) --> 3, (29, 8) --> 3, (29, 9) --> 3, (29, 10) --> 2, (29, 11) --> 3,
                 (29, 12) --> 3, (29, 13) --> 2, (29, 14) --> 2, (29, 15) --> 3, (29, 16) --> 1, (29, 17) --> 1,
                 (29, 18) --> 3, (29, 19) --> 1, (29, 20) --> 1, (30, 1) --> 3, (30, 2) --> 2, (30, 3) --> 1,
                 (30, 4) --> 1, (30, 5) --> 3, (30, 6) --> 2, (30, 7) --> 1, (30, 8) --> 3, (30, 9) --> 1,
                 (30, 10) --> 3, (30, 11) --> 3, (30, 12) --> 1, (30, 13) --> 2, (30, 14) --> 3, (30, 15) --> 1,
                 (30, 16) --> 3, (30, 17) --> 2, (30, 18) --> 1, (30, 19) --> 1, (30, 20) --> 1, (31, 1) --> 2,
                 (31, 2) --> 1, (31, 3) --> 1, (31, 4) --> 3, (31, 5) --> 3, (31, 6) --> 1, (31, 7) --> 1,
                 (31, 8) --> 2, (31, 9) --> 1, (31, 10) --> 3, (31, 11) --> 3, (31, 12) --> 1, (31, 13) --> 2,
                 (31, 14) --> 3, (31, 15) --> 3, (31, 16) --> 2, (31, 17) --> 3, (31, 18) --> 2, (31, 19) --> 3,
                 (31, 20) --> 2)
letting demand be function(1 --> 22, 2 --> 12, 3 --> 18, 4 --> 14, 5 --> 20, 6 --> 9)
letting maxCost be 36
letting n_customer be 6
letting n_transshipment be 20
letting n_warehouses be 31
letting stock be
        function(1 --> 44, 2 --> 44, 3 --> 44, 4 --> 44, 5 --> 44, 6 --> 44, 7 --> 44, 8 --> 44, 9 --> 44, 10 --> 44,
                 11 --> 44, 12 --> 44, 13 --> 44, 14 --> 44, 15 --> 44, 16 --> 44, 17 --> 44, 18 --> 44, 19 --> 44,
                 20 --> 44, 21 --> 44, 22 --> 44, 23 --> 44, 24 --> 44, 25 --> 44, 26 --> 44, 27 --> 44, 28 --> 44,
                 29 --> 44, 30 --> 44, 31 --> 44)
